51 51
19 24
20 18
3 28
10 14
17 4
12 25
4 50
20 20
18 9
5 26
13 10
16 29
25 15
11 41
21 13
2 44
24 17
9 47
1 38
7 33
6 31
14 34
23 5
24 49
15 39
12 22
22 3
25 7
11 6
14 8
13 16
1 46
10 19
6 35
16 12
9 1
22 30
4 51
3 21
7 42
1 11
19 2
2 36
18 48
15 37
23 32
8 27
5 23
17 43
8 45
21 40
